61
100
80	12
79	11
78	8
77	8
76	11
75	5
74	14
73	15
72	16
71	17
70	10
69	18
68	15
67	8
66	14
65	10
64	15
63	11
62	14
61	13
60	13
59	7
58	12
57	16
56	8
55	9
54	10
53	22
52	15
51	12
50	9
49	14
48	15
47	8
46	15
45	11
44	13
43	9
42	15
41	8
40	15
39	12
38	12
37	7
36	15
35	18
34	13
33	12
32	15
31	14
30	12
29	13
28	6
27	13
26	20
25	11
24	13
23	14
22	14
21	5
20	10
